Problem:    Transmisores
Rows:       2
Columns:    8 (8 integer, 8 binary)
Non-zeros:  16
Status:     INTEGER OPTIMAL
Objective:  minimize = 6 (MAXimum)

   No.   Row name        Activity     Lower bound   Upper bound
------ ------------    ------------- ------------- -------------
     1 minimize                    6                             
     2 presupuestoMaximo
                                19.3                          20 

   No. Column name       Activity     Lower bound   Upper bound
------ ------------    ------------- ------------- -------------
     1 X[1]         *              1             0             1 
     2 X[2]         *              0             0             1 
     3 X[3]         *              0             0             1 
     4 X[4]         *              1             0             1 
     5 X[5]         *              1             0             1 
     6 X[6]         *              1             0             1 
     7 X[7]         *              1             0             1 
     8 X[8]         *              1             0             1 

Integer feasibility conditions:

KKT.PE: max.abs.err = 0.00e+00 on row 0
        max.rel.err = 0.00e+00 on row 0
        High quality

KKT.PB: max.abs.err = 0.00e+00 on row 0
        max.rel.err = 0.00e+00 on row 0
        High quality

End of output
